minimize
obj: 1.0320000000000011 - 2 x_1_ + 0.3199999999999976 d_1,1_ + 0.3199999999999976 d_1,2_ + 0.3199999999999976 d_1,3_ + 0.6399999999999992 z_1,2_ - 0.25599999999999973 u_1,2_ + 0.15999999999999748 z_1,3_ - 0.09599999999999849 u_1,3_
subject to
c1_1: 1 d_1,1_ <= 0.2
c2_1: 1 d_1,2_ <= 0.19999999999999996
c3_1: 1 d_1,3_ <= 0.20000000000000007
c4: 1 d_1,4_ <= 0.19999999999999996
c5: 1 x_1_ - 1 z_1,2_ + 1 u_1,2_ <= 1
c6: 1 x_1_ - 1 z_1,3_ + 1 u_1,3_ <= 1
c1: 1 x_1_ + 1 d_1,1_ + 1 d_1,2_ + 1 d_1,3_ >= 0.8
c2: 1 z_1,2_ >= 0
c3: 1 z_1,3_ >= 0
Bounds
x_1_ <= 1
x_1_ >= 0.2
d_1,1_ >= 0
d_1,2_ >= 0
d_1,3_ >= 0
d_1,4_ >= 0
z_1,1_ >= 0
z_1,2_ >= 0
z_1,3_ >= 0
z_1,4_ >= 0
z_1,5_ >= 0
Binary
u_1,1_
u_1,2_
u_1,3_
u_1,4_
u_1,5_
End
